<number of tasks>
250

<cycle time>
1000

<order strength>
0.9


<task times>
1 348
2 437
3 528
4 594
5 396
6 612
7 556
8 435
9 412
10 492
11 412
12 281
13 513
14 424
15 510
16 579
17 307
18 457
19 657
20 518
21 410
22 545
23 499
24 486
25 381
26 652
27 691
28 384
29 509
30 460
31 605
32 431
33 479
34 484
35 376
36 624
37 555
38 752
39 497
40 574
41 417
42 553
43 299
44 662
45 503
46 476
47 308
48 517
49 643
50 707
51 383
52 577
53 434
54 447
55 475
56 586
57 487
58 451
59 548
60 451
61 462
62 713
63 271
64 586
65 393
66 524
67 576
68 550
69 498
70 416
71 336
72 483
73 364
74 528
75 391
76 639
77 657
78 448
79 549
80 317
81 561
82 369
83 552
84 541
85 350
86 453
87 264
88 611
89 460
90 381
91 575
92 462
93 576
94 583
95 554
96 482
97 488
98 357
99 428
100 621
101 351
102 686
103 472
104 374
105 475
106 450
107 439
108 485
109 415
110 470
111 447
112 452
113 534
114 571
115 393
116 491
117 631
118 255
119 435
120 415
121 473
122 430
123 541
124 441
125 539
126 345
127 387
128 405
129 409
130 528
131 297
132 408
133 557
134 534
135 252
136 450
137 425
138 483
139 668
140 756
141 506
142 347
143 548
144 573
145 379
146 391
147 454
148 615
149 366
150 458
151 511
152 614
153 304
154 471
155 645
156 255
157 482
158 511
159 689
160 526
161 463
162 735
163 466
164 572
165 391
166 571
167 627
168 390
169 494
170 680
171 501
172 528
173 562
174 549
175 551
176 619
177 436
178 606
179 458
180 759
181 418
182 416
183 241
184 516
185 360
186 557
187 587
188 430
189 365
190 568
191 507
192 477
193 535
194 614
195 622
196 600
197 254
198 401
199 400
200 535
201 489
202 555
203 576
204 654
205 689
206 541
207 326
208 624
209 510
210 561
211 454
212 414
213 610
214 332
215 373
216 637
217 460
218 551
219 444
220 609
221 585
222 585
223 288
224 601
225 495
226 414
227 593
228 668
229 684
230 440
231 841
232 446
233 615
234 434
235 610
236 582
237 505
238 452
239 482
240 584
241 567
242 507
243 552
244 530
245 355
246 402
247 504
248 439
249 299
250 386

<precedence relations>
1,16
1,89
1,90
1,91
2,6
2,7
3,6
3,7
4,6
4,7
5,6
5,7
6,8
6,9
6,10
6,11
6,12
7,8
7,9
7,10
7,11
7,12
8,13
8,14
8,18
8,21
9,13
9,14
9,15
9,16
9,17
9,18
10,13
10,14
10,15
10,16
11,13
11,14
11,16
11,17
12,64
13,19
13,23
13,24
14,24
15,19
15,20
15,24
16,87
16,92
17,19
17,21
18,19
18,20
18,22
19,25
19,26
19,27
20,26
20,27
20,28
21,25
21,27
21,28
22,25
22,26
23,25
23,26
23,27
23,28
24,25
25,29
25,30
25,31
25,32
26,29
26,30
26,31
26,32
27,29
27,30
27,31
28,31
28,32
29,33
29,34
29,35
29,36
29,37
30,33
30,34
30,35
30,36
31,33
31,34
31,36
31,37
32,33
32,34
32,35
32,36
32,37
33,38
33,39
33,40
33,41
33,42
33,43
33,44
34,38
34,39
34,40
34,43
34,44
35,38
35,39
35,40
36,40
37,38
37,39
37,40
37,41
37,42
37,43
37,44
38,45
38,46
38,47
38,49
38,50
39,45
39,49
40,45
40,48
40,50
41,45
41,46
42,45
42,46
42,50
43,45
43,46
43,47
43,50
44,45
44,46
44,47
45,51
45,52
45,53
45,54
46,51
46,52
46,53
47,51
47,54
48,51
48,52
48,53
48,54
49,51
49,53
50,52
50,53
51,55
51,56
51,57
52,55
52,56
52,57
53,55
53,57
54,74
55,58
55,60
55,61
55,62
56,58
56,59
56,60
56,61
56,62
57,58
57,59
57,60
57,61
57,62
58,63
58,64
59,63
59,64
60,63
60,64
61,63
61,64
62,86
62,92
63,65
63,66
63,68
63,71
64,65
64,66
64,67
64,68
64,69
64,70
64,71
65,72
65,73
65,74
65,76
65,77
66,72
66,73
66,76
66,77
67,72
67,73
67,74
67,75
67,76
67,77
68,72
68,73
68,74
68,75
68,76
68,77
69,117
70,74
71,72
71,73
71,74
71,76
71,77
72,78
72,79
72,80
73,78
74,78
75,79
76,78
76,79
76,80
77,78
77,79
77,80
78,81
78,82
78,83
78,84
79,81
79,82
79,83
79,84
80,81
80,82
80,83
80,84
81,85
81,86
81,87
81,88
81,89
81,90
81,91
81,92
82,85
82,86
82,87
82,89
83,91
84,85
84,86
84,94
85,96
86,93
86,95
87,93
87,94
87,95
87,96
88,93
88,94
88,95
89,93
89,94
89,95
89,96
90,93
90,94
90,96
91,93
91,94
92,93
93,97
93,98
94,97
94,98
94,99
94,100
95,97
95,104
96,97
96,98
96,99
96,100
97,101
97,107
98,101
99,101
99,102
99,104
100,103
101,105
101,106
101,108
102,118
102,128
102,129
103,105
103,106
103,107
103,108
104,105
104,106
104,107
104,108
105,109
105,110
105,111
105,112
105,114
106,109
106,110
106,111
106,112
106,113
106,114
107,109
107,111
107,117
108,109
108,110
109,116
109,118
110,187
111,115
111,127
112,115
112,116
112,117
112,118
113,115
113,118
113,120
113,122
113,124
114,115
114,117
114,122
114,127
115,119
115,121
115,123
115,131
116,120
116,122
116,124
117,123
118,119
118,131
119,125
120,126
122,207
122,211
122,216
122,219
123,125
123,126
124,127
125,130
126,128
126,129
127,129
127,131
128,138
129,132
129,133
129,134
129,135
130,132
130,133
130,134
130,135
131,132
131,133
131,135
132,136
132,137
132,138
132,139
132,140
133,136
133,137
133,166
133,174
134,142
134,143
135,136
135,138
136,227
137,232
138,142
138,143
139,141
139,142
139,143
140,141
140,142
140,143
141,144
141,145
141,146
142,144
142,145
142,146
143,144
143,145
143,146
144,148
144,150
144,152
144,164
145,147
145,148
145,149
145,151
146,149
146,151
146,161
147,163
147,175
148,154
149,153
149,156
149,170
150,153
150,154
150,155
151,153
152,153
153,166
153,174
154,158
154,159
155,157
155,174
156,160
156,166
157,163
157,165
158,161
158,162
158,165
159,186
160,164
160,188
161,191
162,166
162,167
163,168
164,171
164,176
164,210
165,166
166,168
166,169
167,168
167,169
167,170
168,171
168,172
169,173
169,175
170,172
170,174
171,199
171,213
172,178
173,176
173,177
173,178
173,179
174,191
176,184
176,223
177,182
177,183
178,180
178,181
179,182
180,187
180,188
181,185
181,186
181,187
181,188
181,189
182,185
182,190
183,185
183,189
184,231
184,237
184,245
185,209
185,211
185,213
186,231
187,192
188,190
188,191
189,190
189,191
189,192
190,193
190,195
191,196
191,197
192,194
192,210
193,198
193,199
194,201
195,199
195,205
195,207
195,217
196,198
197,198
197,200
197,202
198,204
199,206
200,203
200,208
201,205
202,207
202,216
203,243
203,244
204,209
204,219
205,209
205,212
206,209
206,218
206,219
207,234
208,210
208,211
209,214
210,215
211,229
212,213
212,236
213,218
214,216
215,217
215,219
215,222
215,224
216,220
216,221
216,222
217,221
220,224
220,234
221,223
221,225
221,226
223,231
224,227
226,228
226,229
226,230
228,232
228,233
229,232
229,234
230,242
231,247
232,235
232,238
232,239
233,236
233,237
235,244
236,241
238,243
238,245
239,240
239,241
239,242
242,246
243,247
245,248
245,249
245,250

<end>
